experiments/knapsack_bounded/knapsack_bounded_20_5.mps
NAME
ROWS
 N  OBJ
 L  c1
 L  c2
 L  c3
 L  c4
 L  c5
 L  c6
 L  c7
 L  c8
 L  c9
 L  c10
 L  c11
 L  c12
 L  c13
 L  c14
 L  c15
 L  c16
 L  c17
 L  c18
 L  c19
 L  c20
 L  c21
COLUMNS
    MARKER    'MARKER'                 'INTORG'
    x[1]      c1        921
    x[1]      c2        1
    x[1]      OBJ       -631
    x[2]      c1        231
    x[2]      c3        1
    x[2]      OBJ       -766
    x[3]      c1        290
    x[3]      c4        1
    x[3]      OBJ       -116
    x[4]      c1        905
    x[4]      c5        1
    x[4]      OBJ       -158
    x[5]      c1        969
    x[5]      c6        1
    x[5]      OBJ       -748
    x[6]      c1        322
    x[6]      c7        1
    x[6]      OBJ       -485
    x[7]      c1        355
    x[7]      c8        1
    x[7]      OBJ       -791
    x[8]      c1        731
    x[8]      c9        1
    x[8]      OBJ       -938
    x[9]      c1        693
    x[9]      c10       1
    x[9]      OBJ       -810
    x[10]     c1        113
    x[10]     c11       1
    x[10]     OBJ       -502
    x[11]     c1        537
    x[11]     c12       1
    x[11]     OBJ       -803
    x[12]     c1        22
    x[12]     c13       1
    x[12]     OBJ       -898
    x[13]     c1        60
    x[13]     c14       1
    x[13]     OBJ       -404
    x[14]     c1        701
    x[14]     c15       1
    x[14]     OBJ       -598
    x[15]     c1        181
    x[15]     c16       1
    x[15]     OBJ       -954
    x[16]     c1        476
    x[16]     c17       1
    x[16]     OBJ       -761
    x[17]     c1        48
    x[17]     c18       1
    x[17]     OBJ       -730
    x[18]     c1        624
    x[18]     c19       1
    x[18]     OBJ       -372
    x[19]     c1        502
    x[19]     c20       1
    x[19]     OBJ       -730
    x[20]     c1        781
    x[20]     c21       1
    x[20]     OBJ       -539
    MARKER    'MARKER'                 'INTEND'
RHS
    rhs       c1        4731
    rhs       c2        3
    rhs       c3        4
    rhs       c4        2
    rhs       c5        2
    rhs       c6        2
    rhs       c7        10
    rhs       c8        2
    rhs       c9        4
    rhs       c10       5
    rhs       c11       1
    rhs       c12       6
    rhs       c13       9
    rhs       c14       9
    rhs       c15       7
    rhs       c16       3
    rhs       c17       1
    rhs       c18       4
    rhs       c19       7
    rhs       c20       3
    rhs       c21       9
RANGES
BOUNDS
 LO bounds    x[1]      0
 PL bounds    x[1]
 LO bounds    x[2]      0
 PL bounds    x[2]
 LO bounds    x[3]      0
 PL bounds    x[3]
 LO bounds    x[4]      0
 PL bounds    x[4]
 LO bounds    x[5]      0
 PL bounds    x[5]
 LO bounds    x[6]      0
 PL bounds    x[6]
 LO bounds    x[7]      0
 PL bounds    x[7]
 LO bounds    x[8]      0
 PL bounds    x[8]
 LO bounds    x[9]      0
 PL bounds    x[9]
 LO bounds    x[10]     0
 PL bounds    x[10]
 LO bounds    x[11]     0
 PL bounds    x[11]
 LO bounds    x[12]     0
 PL bounds    x[12]
 LO bounds    x[13]     0
 PL bounds    x[13]
 LO bounds    x[14]     0
 PL bounds    x[14]
 LO bounds    x[15]     0
 PL bounds    x[15]
 LO bounds    x[16]     0
 PL bounds    x[16]
 LO bounds    x[17]     0
 PL bounds    x[17]
 LO bounds    x[18]     0
 PL bounds    x[18]
 LO bounds    x[19]     0
 PL bounds    x[19]
 LO bounds    x[20]     0
 PL bounds    x[20]
ENDATA
